1 14 5 101 67 80 40 31 21 79 35 93 77 57 15 87 53 72 89 38 11 91 59 96 47 42 20 98 33 29 50 115 88 142 195 167 83 4 8 81 49 41 74 108 55 105 54 185 
1 
14 
5 
101 
67 
80 
40 
31 
21 
79 
35 
93 
77 
57 
15 
87 
53 
72 
89 
38 
11 
91 
59 
96 
47 
42 
20 
98 
33 
29 
50 
115 
88 
142 
195 
167 
83 
4 
8 
81 
49 
41 
74 
108 
55 
105 
54 
185 
total no. of edges: 0

1 14 5 101 67 80 40 31 21 79 35 93 77 57 15 87 53 72 89 38 11 91 59 96 47 42 20 98 33 29 50 115 88 142 195 167 83 4 8 81 49 41 74 108 55 105 54 185 
1 
14 
5 
101 
67 
80 
40 
31 
21 
79 
35 
93 
77 
57 
15 
87 
53 
72 
89 
38 
11 
91 
59 
96 
47 
42 
20 
98 
33 
29 
50 
115 
88 
142 
195 
167 
83 
4 
8 
81 
49 
41 
74 
108 
55 
105 
54 
185 
total no. of edges: 0

1 14 5 101 67 80 40 31 21 79 35 93 77 57 15 87 53 72 89 38 11 91 59 96 47 42 20 98 33 29 50 115 99 88 105 185 142 167 4 83 49 81 8 41 74 108 55 195 
1 
14 
5 
101 
67 
80 
40 
31 
21 
79 
35 
93 
77 
57 
15 
87 
53 
72 
89 
38 
11 
91 
59 
96 
47 
42 
20 
98 
33 
29 
50 
115 
99 
88 
105 
185 
142 
167 
4 
83 
49 
81 
8 
41 
74 
108 
55 
195 
total no. of edges: 0

1 14 5 101 67 80 40 31 21 79 35 93 77 57 15 87 53 72 89 38 11 91 59 96 47 42 20 98 33 29 50 115 99 88 105 185 142 167 4 83 49 81 8 41 74 108 55 195 
1 
14 
5 
101 
67 
80 
40 
31 
21 
79 
35 
93 
77 
57 
15 
87 
53 
72 
89 
38 
11 
91 
59 
96 
47 
42 
20 
98 
33 
29 
50 
115 
99 
88 
105 
185 
142 
167 
4 
83 
49 
81 
8 
41 
74 
108 
55 
195 
total no. of edges: 0

1 14 5 101 67 80 40 31 21 79 35 93 77 57 15 87 53 72 89 38 11 91 59 96 47 42 20 98 33 29 50 115 99 88 54 55 105 74 108 195 185 167 83 4 8 81 49 142 
1 
14 
5 
101 
67 
80 
40 
31 
21 
79 
35 
93 
77 
57 
15 
87 
53 
72 
89 
38 
11 
91 
59 
96 
47 
42 
20 
98 
33 
29 
50 
115 
99 
88 
54 
55 
105 
74 
108 
195 
185 
167 
83 
4 
8 
81 
49 
142 
total no. of edges: 0

1 14 5 101 67 80 40 31 21 79 35 93 77 57 15 87 53 72 89 38 11 91 59 96 47 42 20 98 33 29 50 115 99 88 54 55 105 74 108 195 185 167 83 4 8 81 49 142 
1 
14 
5 
101 
67 
80 
40 
31 
21 
79 
35 
93 
77 
57 
15 
87 
53 
72 
89 
38 
11 
91 
59 
96 
47 
42 
20 
98 
33 
29 
50 
115 
99 
88 
54 
55 
105 
74 
108 
195 
185 
167 
83 
4 
8 
81 
49 
142 
total no. of edges: 0

